(set-logic QF_UF)
(declare-fun circuit () Bool)
(declare-fun grn () Bool)
(declare-fun org () Bool)
(declare-fun rd1 () Bool)
(declare-fun rd2 () Bool)
(assert (not (= (not (not rd1)) rd1)))
(check-sat)
(exit)
